branch-and-cut/resultados/B/b14.sol
# Objective value = 235
e[0,9] 0
e[9,0] 0
e[1,46] 1
e[46,1] 1
e[2,90] 0
e[90,2] 0
e[3,84] 1
e[84,3] 1
e[4,7] 0
e[7,4] 0
e[4,34] 0
e[34,4] 0
e[4,52] 0
e[52,4] 0
e[4,55] 0
e[55,4] 0
e[4,83] 0
e[83,4] 0
e[4,98] 0
e[98,4] 0
e[5,93] 0
e[93,5] 0
e[6,10] 0
e[10,6] 0
e[6,33] 0
e[33,6] 0
e[6,44] 0
e[44,6] 0
e[6,63] 0
e[63,6] 0
e[8,95] 0
e[95,8] 0
e[9,28] 0
e[28,9] 0
e[11,99] 0
e[99,11] 0
e[12,13] 0
e[13,12] 0
e[12,16] 0
e[16,12] 0
e[13,21] 0
e[21,13] 0
e[15,1] 1
e[1,15] 1
e[16,22] 0
e[22,16] 0
e[16,34] 0
e[34,16] 0
e[18,1] 1
e[1,18] 1
e[18,35] 0
e[35,18] 0
e[19,62] 0
e[62,19] 0
e[19,94] 0
e[94,19] 0
e[20,59] 0
e[59,20] 0
e[22,36] 0
e[36,22] 0
e[23,49] 0
e[49,23] 0
e[23,60] 0
e[60,23] 0
e[24,72] 1
e[72,24] 1
e[27,99] 0
e[99,27] 0
e[30,45] 0
e[45,30] 0
e[33,25] 0
e[25,33] 0
e[34,92] 0
e[92,34] 0
e[38,56] 1
e[56,38] 1
e[39,41] 1
e[41,39] 1
e[40,38] 1
e[38,40] 1
e[41,14] 1
e[14,41] 1
e[42,53] 1
e[53,42] 1
e[42,67] 0
e[67,42] 0
e[43,53] 1
e[53,43] 1
e[46,26] 0
e[26,46] 0
e[46,71] 1
e[71,46] 1
e[47,11] 1
e[11,47] 1
e[47,56] 1
e[56,47] 1
e[49,44] 0
e[44,49] 0
e[50,8] 0
e[8,50] 0
e[50,40] 0
e[40,50] 0
e[52,15] 0
e[15,52] 0
e[52,23] 0
e[23,52] 0
e[52,50] 0
e[50,52] 0
e[52,77] 0
e[77,52] 0
e[53,17] 0
e[17,53] 0
e[53,69] 1
e[69,53] 1
e[53,74] 1
e[74,53] 1
e[55,1] 0
e[1,55] 0
e[55,33] 0
e[33,55] 0
e[55,61] 0
e[61,55] 0
e[55,62] 0
e[62,55] 0
e[56,12] 0
e[12,56] 0
e[56,85] 1
e[85,56] 1
e[56,88] 1
e[88,56] 1
e[57,78] 1
e[78,57] 1
e[57,82] 0
e[82,57] 0
e[58,5] 1
e[5,58] 1
e[58,20] 0
e[20,58] 0
e[59,54] 0
e[54,59] 0
e[61,64] 1
e[64,61] 1
e[63,97] 0
e[97,63] 0
e[65,30] 0
e[30,65] 0
e[65,43] 1
e[43,65] 1
e[65,51] 0
e[51,65] 0
e[65,70] 1
e[70,65] 1
e[66,89] 0
e[89,66] 0
e[67,2] 0
e[2,67] 0
e[67,19] 0
e[19,67] 0
e[67,65] 0
e[65,67] 0
e[67,87] 0
e[87,67] 0
e[69,67] 0
e[67,69] 0
e[70,59] 0
e[59,70] 0
e[70,80] 1
e[80,70] 1
e[72,88] 1
e[88,72] 1
e[73,3] 1
e[3,73] 1
e[73,27] 0
e[27,73] 0
e[73,61] 1
e[61,73] 1
e[73,67] 0
e[67,73] 0
e[73,86] 0
e[86,73] 0
e[74,41] 1
e[41,74] 1
e[75,47] 1
e[47,75] 1
e[75,79] 0
e[79,75] 0
e[77,18] 1
e[18,77] 1
e[77,48] 1
e[48,77] 1
e[79,17] 0
e[17,79] 0
e[79,90] 0
e[90,79] 0
e[80,29] 1
e[29,80] 1
e[85,68] 0
e[68,85] 0
e[86,0] 0
e[0,86] 0
e[86,4] 0
e[4,86] 0
e[86,32] 0
e[32,86] 0
e[86,96] 0
e[96,86] 0
e[88,21] 1
e[21,88] 1
e[88,57] 1
e[57,88] 1
e[88,75] 0
e[75,88] 0
e[88,81] 0
e[81,88] 0
e[88,91] 1
e[91,88] 1
e[90,66] 0
e[66,90] 0
e[90,76] 0
e[76,90] 0
e[92,31] 0
e[31,92] 0
e[92,96] 0
e[96,92] 0
e[94,6] 0
e[6,94] 0
e[94,37] 0
e[37,94] 0
e[94,42] 0
e[42,94] 0
e[95,39] 1
e[39,95] 1
e[95,58] 1
e[58,95] 1
e[95,72] 1
e[72,95] 1
e[95,73] 1
e[73,95] 1
e[95,77] 1
e[77,95] 1
e[96,10] 0
e[10,96] 0
e[97,43] 1
e[43,97] 1
e[98,24] 0
e[24,98] 0
e[99,33] 0
e[33,99] 0
e[99,98] 0
e[98,99] 0
