branch-and-cut/resultados/B/b14.log

Gurobi 10.0.3 (win64) logging started Sun Dec 17 20:00:57 2023

Set parameter LogFile to value "./resultados/log.log"
Set parameter TimeLimit to value 600
Gurobi Optimizer version 10.0.3 build v10.0.3rc0 (win64)

CPU model: AMD Ryzen 5 5600 6-Core Processor, instruction set [SSE2|AVX|AVX2]
Thread count: 6 physical cores, 12 logical processors, using up to 12 threads

Academic license 2433534 - for non-commercial use only - registered to gm___@gmail.com
Optimize a model with 375 rows, 250 columns and 5898 nonzeros
Model fingerprint: 0x140f2be7
Variable types: 0 continuous, 250 integer (250 binary)
Coefficient statistics:
  Matrix range     [1e+00, 3e+01]
  Objective range  [5e-01, 5e+00]
  Bounds range     [1e+00, 1e+00]
  RHS range        [1e+00, 1e+00]
Found heuristic solution: objective 685.0000000
Presolve removed 360 rows and 133 columns
Presolve time: 0.00s
Presolved: 15 rows, 117 columns, 37 nonzeros
Variable types: 0 continuous, 117 integer (117 binary)
Root relaxation presolved: 28 rows, 115 columns, 86 nonzeros


Root relaxation: objective 1.490000e+02, 26 iterations, 0.00 seconds (0.00 work units)

    Nodes    |    Current Node    |     Objective Bounds      |     Work
 Expl Unexpl |  Obj  Depth IntInf | Incumbent    BestBd   Gap | It/Node Time

     0     0  149.00000    0    -  685.00000  149.00000  78.2%     -    0s
     0     0  172.00000    0    -  685.00000  172.00000  74.9%     -    0s
     0     0  181.50000    0   17  685.00000  181.50000  73.5%     -    0s
H    0     0                     267.0000000  193.50000  27.5%     -    0s
     0     0  193.50000    0    5  267.00000  193.50000  27.5%     -    0s
     0     0  197.00000    0    -  267.00000  197.00000  26.2%     -    0s
     0     0  199.00000    0    -  267.00000  199.00000  25.5%     -    0s
     0     0  203.50000    0   13  267.00000  203.50000  23.8%     -    0s
     0     0  207.00000    0    -  267.00000  207.00000  22.5%     -    0s
H    0     0                     256.0000000  209.37500  18.2%     -    0s
     0     0  209.37500    0   15  256.00000  209.37500  18.2%     -    0s
H    0     0                     249.0000000  211.83333  14.9%     -    0s
     0     0  211.83333    0    9  249.00000  211.83333  14.9%     -    0s
     0     0  213.00000    0   11  249.00000  213.00000  14.5%     -    0s
     0     0  214.40000    0   17  249.00000  214.40000  13.9%     -    0s
     0     0  214.40000    0   18  249.00000  214.40000  13.9%     -    0s
     0     0  215.20000    0   23  249.00000  215.20000  13.6%     -    0s
     0     0  215.60256    0   26  249.00000  215.60256  13.4%     -    0s
     0     0  216.15238    0   27  249.00000  216.15238  13.2%     -    0s
     0     0  217.89796    0   34  249.00000  217.89796  12.5%     -    1s
     0     0  219.80882    0   30  249.00000  219.80882  11.7%     -    1s
     0     0  220.82500    0   32  249.00000  220.82500  11.3%     -    1s
H    0     0                     244.0000000  221.46087  9.24%     -    1s
     0     0  221.46087    0   28  244.00000  221.46087  9.24%     -    1s
     0     0  222.39521    0   28  244.00000  222.39521  8.85%     -    1s
     0     0  223.21727    0   30  244.00000  223.21727  8.52%     -    1s
H    0     0                     241.0000000  223.62069  7.21%     -    1s
     0     0  223.62069    0   29  241.00000  223.62069  7.21%     -    1s
     0     0  223.85525    0   39  241.00000  223.85525  7.11%     -    1s
     0     0  224.46111    0   35  241.00000  224.46111  6.86%     -    1s
     0     0  224.82561    0   32  241.00000  224.82561  6.71%     -    1s
     0     0  225.06459    0   40  241.00000  225.06459  6.61%     -    1s
     0     0  225.50779    0   41  241.00000  225.50779  6.43%     -    1s
     0     0  225.70158    0   40  241.00000  225.70158  6.35%     -    1s
     0     0  225.92985    0   39  241.00000  225.92985  6.25%     -    1s
     0     0  226.09452    0   35  241.00000  226.09452  6.18%     -    1s
     0     0  226.41694    0   43  241.00000  226.41694  6.05%     -    1s
     0     0  226.88182    0   37  241.00000  226.88182  5.86%     -    1s
H    0     0                     239.0000000  226.97571  5.03%     -    1s
     0     0  226.97571    0   38  239.00000  226.97571  5.03%     -    1s
     0     0  227.04322    0   38  239.00000  227.04322  5.00%     -    1s
     0     0  227.09088    0   47  239.00000  227.09088  4.98%     -    1s
     0     0  227.09088    0   46  239.00000  227.09088  4.98%     -    1s
     0     2  227.09088    0   46  239.00000  227.09088  4.98%     -    2s
    92   105  229.71610    5   41  239.00000  228.24892  4.50%  33.4    5s
   216   223  232.65217   10   42  239.00000  229.28217  4.07%  41.3   10s
   339   350  230.34694    6   49  239.00000  229.85243  3.83%  43.7   15s
   452   468  230.34069   13   52  239.00000  230.12821  3.71%  43.7   20s
H  778   796                     238.0000000  230.50955  3.15%  40.4   23s
   982  1017  231.56294   13   44  238.00000  230.68098  3.08%  40.9   25s
H 1105  1108                     237.0000000  230.73563  2.64%  40.9   26s
H 1258  1165                     236.0000000  230.87000  2.17%  41.2   27s
  1297  1191  233.76700   11   55  236.00000  231.53787  1.89%  39.9   30s
  1345  1224  231.92280    9   58  236.00000  231.92280  1.73%  39.5   35s
H 1396  1196                     235.0000000  232.54689  1.04%  39.9   37s
  1659  1075     cutoff   36       235.00000  233.85416  0.49%  38.7   40s

Cutting planes:
  User: 84
  Gomory: 5
  Lift-and-project: 20
  MIR: 3
  Flow cover: 99
  Zero half: 63
  RLT: 1
  Lazy constraints: 33

Explored 1706 nodes (65561 simplex iterations) in 40.04 seconds (25.56 work units)
Thread count was 12 (of 12 available processors)

Solution count 10: 235 236 237 ... 267

Optimal solution found (tolerance 1.00e-04)
Best objective 2.350000000000e+02, best bound 2.350000000000e+02, gap 0.0000%

User-callback calls 9345, time in user-callback 25.65 sec
